87
0 19 65 7 86 2 52 16 13 38 
77 49 26 70 78 63 58 66 22 35 
37 82 39 32 46 48 11 81 31 6 
54 85 8 30 14 10 21 29 84 64 
41 40 18 15 12 9 1 17 79 25 
5 80 50 73 47 62 56 44 45 42 
28 20 71 55 34 68 51 36 33 76 
72 61 3 59 23 53 74 69 60 4 
24 75 67 57 27 43 83 
